CMPL model generation - running

CMPL version: 1.11.0
Authors: Thomas Schleiff, Mike Steglich
Distributed under the GPLv3 

create model instance ...
write model instance ...
CMPL model generation - finished

Solver - running


Welcome to IBM(R) ILOG(R) CPLEX(R) Interactive Optimizer 12.7.1.0
  with Simplex, Mixed Integer & Barrier Optimizers
5725-A06 5725-A29 5724-Y48 5724-Y49 5724-Y54 5724-Y55 5655-Y21
Copyright IBM Corp. 1988, 2017.  All Rights Reserved.

Type 'help' for a list of available commands.
Type 'help' followed by a command name for more
information on commands.

CPLEX> Specified objective sense: MINIMIZE
Selected objective  name:  line[1]
Selected RHS        name:  RHS
Selected bound      name:  BOUND
Problem '/tmp/cmpl.T24143.mps' read.
Read time = 0.06 sec. (8.17 ticks)
CPLEX> CPXPARAM_Read_APIEncoding                        "UTF-8"
Tried aggregator 3 times.
MIP Presolve eliminated 19208 rows and 30642 columns.
MIP Presolve modified 340 coefficients.
Aggregator did 642 substitutions.
Reduced MIP has 2505 rows, 3309 columns, and 9649 nonzeros.
Reduced MIP has 3141 binaries, 0 generals, 0 SOSs, and 0 indicators.
Presolve time = 0.06 sec. (40.48 ticks)
Found incumbent of value 798.242286 after 0.11 sec. (63.23 ticks)
Probing fixed 6 vars, tightened 0 bounds.
Probing time = 0.01 sec. (4.33 ticks)
Tried aggregator 1 time.
MIP Presolve eliminated 0 rows and 6 columns.
MIP Presolve modified 31 coefficients.
Reduced MIP has 2505 rows, 3303 columns, and 9637 nonzeros.
Reduced MIP has 3303 binaries, 0 generals, 0 SOSs, and 0 indicators.
Presolve time = 0.01 sec. (8.20 ticks)
Probing time = 0.01 sec. (2.68 ticks)
Clique table members: 5951.
MIP emphasis: balance optimality and feasibility.
MIP search method: dynamic search.
Parallel mode: none, using 1 thread.
Root relaxation solution time = 0.01 sec. (4.94 ticks)

        Nodes                                         Cuts/
   Node  Left     Objective  IInf  Best Integer    Best Bound    ItCnt     Gap

*     0+    0                          798.2423      -33.6320           104.21%
      0     0      192.2366     7      798.2423      192.2366      170   75.92%
*     0+    0                          202.0137      192.2366             4.84%
*     0+    0                          192.4366      192.2366             0.10%
*     0     0      integral     0      192.3691       Cuts: 9      174    0.00%
      0     0        cutoff            192.3691      192.3691      174    0.00%
Elapsed time = 0.18 sec. (102.97 ticks, tree = 0.01 MB, solutions = 4)

Cover cuts applied:  6
Gomory fractional cuts applied:  3

Root node processing (before b&c):
  Real time             =    0.19 sec. (104.68 ticks)
Sequential b&c:
  Real time             =    0.00 sec. (0.00 ticks)
                          ------------
Total (root+branch&cut) =    0.19 sec. (104.68 ticks)

Solution pool: 4 solutions saved.

MIP - Integer optimal solution:  Objective =  1.9236914300e+02
Solution time =    0.19 sec.  Iterations = 174  Nodes = 0
Deterministic time = 104.78 ticks  (565.35 ticks/sec)

CPLEX> Incumbent solution written to file '/tmp/cmpl.T24143.gsol'.
CPLEX> 
CMPL: Time used for model generation: 0 seconds
CMPL: Time used for solving the model: 1 seconds


Solution written to ASCII file: results/output_generated_conf_0.5/2015-12-07-4/fair-nonlinear.sol

Solver - finished
